set VV := 0 1 2 3 4 5 6 7 8 9 10 11 12 13 14 15 16 17 18 19 20 21 22 23 24 ;
set VS := 0 1 2 3 4 5 6 7 8 9 10 11 12 13 14 15 16 17 18 19 20 21 22 23 24 25 26 27 28 29 30 31 32 33 34 35 36 37 38 39 40 41 42 43 44 45 46 47 48 49 50 51 52 53 54 ;
param cv := 
0 13
1 24
2 16
3 25
4 16
5 19
6 11
7 22
8 21
9 11
10 11
11 10
12 10
13 11
14 18
15 15
16 15
17 13
18 22
19 25
20 22
21 18
22 24
23 21
24 23
;
param cs := 
0 27
1 23
2 35
3 39
4 37
5 31
6 32
7 25
8 30
9 30
10 31
11 38
12 38
13 28
14 26
15 39
16 39
17 33
18 31
19 35
20 33
21 28
22 38
23 37
24 28
25 38
26 31
27 31
28 37
29 22
30 36
31 36
32 27
33 23
34 40
35 20
36 24
37 33
38 40
39 31
40 29
41 32
42 40
43 40
44 29
45 23
46 24
47 31
48 40
49 30
50 27
51 25
52 40
53 27
54 31
;
param bv:	 0 1 2 3 4 5 6 7 8 9 10 11 12 13 14 15 16 17 18 19 20 21 22 23 24 := 
		0 0 0 0 0 0 0 0 19 0 18 0 0 0 0 0 0 0 24 0 0 0 0 0 0 0 
		1 0 0 0 0 0 0 0 0 19 0 25 0 0 0 0 0 0 0 0 0 0 0 0 0 0 
		2 0 0 0 0 17 0 0 0 0 0 0 24 0 0 0 23 0 0 0 0 0 11 0 0 0 
		3 0 0 0 0 0 17 0 0 0 0 0 0 0 0 0 0 0 0 22 0 0 0 0 0 0 
		4 0 0 0 0 0 0 0 0 0 0 0 0 0 0 23 0 0 0 0 0 0 0 0 0 0 
		5 0 0 0 0 0 0 0 0 0 0 0 0 22 0 0 0 0 0 0 0 0 0 15 0 0 
		6 0 0 0 0 0 0 0 0 0 0 0 0 21 0 0 0 0 11 0 0 0 0 25 0 0 
		7 0 0 0 0 0 0 0 0 0 0 0 0 0 0 0 0 0 0 0 0 0 0 16 0 0 
		8 0 0 0 0 0 0 0 0 0 0 0 22 0 21 0 21 0 0 14 12 0 0 0 0 0 
		9 0 0 0 0 0 0 0 0 0 0 0 0 0 0 0 0 0 0 0 0 0 0 0 0 0 
		10 0 0 0 0 0 0 0 0 0 0 0 0 0 0 0 0 0 0 25 0 0 0 0 0 0 
		11 0 0 0 0 0 0 0 0 0 0 0 0 0 0 0 0 0 23 0 0 16 0 0 0 17 
		12 0 0 0 0 0 0 0 0 0 0 0 0 0 0 0 0 0 0 20 0 0 0 13 0 0 
		13 0 0 0 0 0 0 0 0 0 0 0 0 0 0 0 0 13 11 0 0 0 20 0 0 0 
		14 0 0 0 0 0 0 0 0 0 0 0 0 0 0 0 0 0 0 0 0 0 0 0 0 0 
		15 0 0 0 0 0 0 0 0 0 0 0 0 0 0 0 0 0 0 0 0 0 0 0 0 0 
		16 0 0 0 0 0 0 0 0 0 0 0 0 0 0 0 0 0 0 0 0 0 19 0 0 0 
		17 0 0 0 0 0 0 0 0 0 0 0 0 0 0 0 0 0 0 0 0 0 0 24 0 0 
		18 0 0 0 0 0 0 0 0 0 0 0 0 0 0 0 0 0 0 0 0 0 0 0 0 0 
		19 0 0 0 0 0 0 0 0 0 0 0 0 0 0 0 0 0 0 0 0 0 0 0 0 0 
		20 0 0 0 0 0 0 0 0 0 0 0 0 0 0 0 0 0 0 0 0 0 0 0 0 0 
		21 0 0 0 0 0 0 0 0 0 0 0 0 0 0 0 0 0 0 0 0 0 0 0 0 0 
		22 0 0 0 0 0 0 0 0 0 0 0 0 0 0 0 0 0 0 0 0 0 0 0 13 0 
		23 0 0 0 0 0 0 0 0 0 0 0 0 0 0 0 0 0 0 0 0 0 0 0 0 0 
		24 0 0 0 0 0 0 0 0 0 0 0 0 0 0 0 0 0 0 0 0 0 0 0 0 0 
;
param bs:	 0 1 2 3 4 5 6 7 8 9 10 11 12 13 14 15 16 17 18 19 20 21 22 23 24 25 26 27 28 29 30 31 32 33 34 35 36 37 38 39 40 41 42 43 44 45 46 47 48 49 50 51 52 53 54 := 
		0 0 0 0 37 0 0 0 0 0 0 35 0 0 0 0 31 0 0 0 0 0 0 0 0 0 0 0 0 0 0 0 0 0 0 0 0 0 0 0 0 0 0 0 33 0 0 0 0 0 0 0 0 0 0 0 
		1 0 0 0 0 0 0 0 0 0 0 0 0 0 0 0 0 0 0 0 0 0 0 0 33 0 0 0 0 0 0 0 0 0 0 0 0 0 0 0 0 0 0 0 0 0 0 0 0 0 0 37 0 0 26 0 
		2 0 0 0 0 0 0 0 0 0 0 29 0 0 0 0 0 0 26 0 0 0 0 0 0 40 0 0 0 0 0 0 0 0 0 0 0 0 0 0 0 0 0 0 0 0 0 0 0 0 0 0 0 0 0 0 
		3 37 0 0 0 22 0 0 0 0 0 0 0 0 30 40 0 0 0 22 0 0 0 0 0 0 0 0 0 0 0 0 0 0 0 0 0 0 0 24 0 0 0 0 0 0 0 0 0 0 0 0 0 0 0 0 
		4 0 0 0 22 0 0 0 0 0 0 0 0 0 0 37 0 0 0 40 29 0 0 0 0 0 0 0 0 0 39 0 0 0 0 0 28 0 0 0 0 0 0 0 0 0 0 0 0 0 0 0 0 0 0 0 
		5 0 0 0 0 0 0 0 40 0 0 0 0 0 0 0 0 0 0 0 0 0 0 0 0 0 0 0 0 0 0 0 0 26 0 0 0 0 0 0 0 0 0 0 27 29 0 0 0 23 0 0 0 0 0 35 
		6 0 0 0 0 0 0 0 29 0 0 0 0 0 0 0 0 0 0 0 0 0 0 0 20 0 0 0 0 0 0 24 0 0 0 0 0 0 0 0 0 26 0 0 0 0 0 0 38 0 25 30 0 0 0 0 
		7 0 0 0 0 0 40 29 0 0 22 0 0 0 0 0 0 0 0 0 0 0 0 0 0 0 26 0 0 0 0 0 0 0 0 0 0 0 0 0 0 0 0 24 28 0 0 0 0 0 0 0 0 0 37 26 
		8 0 0 0 0 0 0 0 0 0 0 0 0 0 0 0 0 0 0 0 0 0 0 0 0 0 0 0 0 0 0 0 0 0 0 0 0 0 0 0 0 27 0 27 0 0 0 0 24 0 0 38 0 0 0 0 
		9 0 0 0 0 0 0 0 22 0 0 0 0 0 0 24 0 0 0 0 0 0 0 35 0 0 0 0 0 0 0 0 0 24 0 0 0 25 0 0 0 0 0 0 32 0 0 0 0 0 0 0 28 0 0 0 
		10 35 0 29 0 0 0 0 0 0 0 0 23 0 0 0 0 0 0 0 0 32 0 0 0 0 27 0 0 0 0 0 0 0 0 23 0 0 0 0 0 0 0 0 0 34 0 0 0 0 0 0 35 36 0 0 
		11 0 0 0 0 0 0 0 0 0 0 23 0 0 0 0 0 0 0 31 0 0 0 0 0 0 0 0 0 0 0 0 23 0 0 0 23 0 0 0 0 0 0 0 39 32 0 0 0 0 0 0 0 22 0 0 
		12 0 0 0 0 0 0 0 0 0 0 0 0 0 0 0 0 0 38 0 0 0 0 0 0 0 0 0 0 20 26 0 0 0 0 35 0 0 0 0 0 0 0 0 0 0 0 0 0 0 0 0 0 22 0 0 
		13 0 0 0 30 0 0 0 0 0 0 0 0 0 0 0 0 0 33 0 0 0 0 0 0 0 0 0 0 20 0 0 0 0 0 0 0 0 0 0 0 0 0 0 0 0 0 0 0 0 23 0 0 0 0 0 
		14 0 0 0 40 37 0 0 0 0 24 0 0 0 0 0 0 0 0 27 24 0 0 34 0 0 0 0 0 0 0 0 0 0 0 0 35 0 0 0 0 0 0 0 0 32 0 0 0 27 0 39 0 32 0 0 
		15 31 0 0 0 0 0 0 0 0 0 0 0 0 0 0 0 0 0 0 0 0 0 34 0 0 35 0 0 0 0 0 0 0 0 0 0 0 0 0 0 0 0 0 0 0 0 0 0 0 0 0 0 0 0 0 
		16 0 0 0 0 0 0 0 0 0 0 0 0 0 0 0 0 0 34 0 0 0 0 0 0 40 0 0 0 0 0 22 0 0 0 0 0 0 0 22 0 0 0 0 0 0 0 0 0 0 0 0 0 0 0 0 
		17 0 0 26 0 0 0 0 0 0 0 0 0 38 33 0 0 34 0 0 0 0 34 0 0 0 26 0 0 0 38 0 0 0 0 0 0 0 0 0 0 0 0 0 0 0 0 0 0 0 0 0 0 0 0 0 
		18 0 0 0 22 40 0 0 0 0 0 0 31 0 0 27 0 0 0 0 29 0 0 0 0 0 0 0 0 0 39 0 0 0 0 0 0 0 0 0 0 0 0 0 0 0 0 0 0 0 0 0 0 0 40 0 
		19 0 0 0 0 29 0 0 0 0 0 0 0 0 0 24 0 0 0 29 0 0 0 0 0 0 0 30 0 21 0 0 0 21 0 0 0 0 0 0 38 0 0 0 0 0 0 0 0 0 0 0 0 32 0 34 
		20 0 0 0 0 0 0 0 0 0 0 32 0 0 0 0 0 0 0 0 0 0 0 0 0 0 0 0 26 0 0 21 0 0 0 0 0 34 0 0 0 0 0 0 0 0 0 0 0 37 0 0 0 0 0 0 
		21 0 0 0 0 0 0 0 0 0 0 0 0 0 0 0 0 0 34 0 0 0 0 0 0 0 0 0 0 0 0 0 0 0 0 0 0 0 0 0 0 0 0 0 0 0 0 0 0 0 0 35 0 32 0 0 
		22 0 0 0 0 0 0 0 0 0 35 0 0 0 0 34 34 0 0 0 0 0 0 0 0 0 0 0 0 0 0 0 37 0 0 0 0 0 0 0 0 0 0 0 0 0 0 0 0 0 0 0 32 0 0 0 
		23 0 33 0 0 0 0 20 0 0 0 0 0 0 0 0 0 0 0 0 0 0 0 0 0 0 0 0 40 0 0 0 0 0 0 0 0 0 0 0 36 20 0 0 0 0 36 0 31 0 39 0 0 31 23 0 
		24 0 0 40 0 0 0 0 0 0 0 0 0 0 0 0 0 40 0 0 0 0 0 0 0 0 0 0 0 0 0 0 0 0 0 0 0 0 0 0 0 0 35 0 0 0 0 0 0 0 0 0 0 0 0 0 
		25 0 0 0 0 0 0 0 26 0 0 27 0 0 0 0 35 0 26 0 0 0 0 0 0 0 0 0 0 0 0 0 0 0 0 0 0 0 0 0 0 0 0 0 27 0 0 24 0 0 0 30 0 0 0 0 
		26 0 0 0 0 0 0 0 0 0 0 0 0 0 0 0 0 0 0 0 30 0 0 0 0 0 0 0 0 0 0 0 0 0 29 0 0 0 0 0 0 0 0 0 0 0 26 0 0 0 0 0 0 0 35 0 
		27 0 0 0 0 0 0 0 0 0 0 0 0 0 0 0 0 0 0 0 0 26 0 0 40 0 0 0 0 22 0 23 0 0 0 0 0 0 0 31 0 0 0 0 0 0 0 0 0 0 0 0 0 0 0 0 
		28 0 0 0 0 0 0 0 0 0 0 0 0 20 20 0 0 0 0 0 21 0 0 0 0 0 0 0 22 0 0 0 0 0 20 0 0 0 0 0 0 0 0 0 0 0 29 0 0 0 0 0 0 0 26 0 
		29 0 0 0 0 39 0 0 0 0 0 0 0 26 0 0 0 0 38 39 0 0 0 0 0 0 0 0 0 0 0 24 0 0 24 0 0 20 23 0 0 0 0 0 0 0 0 0 22 37 0 0 0 0 22 0 
		30 0 0 0 0 0 0 24 0 0 0 0 0 0 0 0 0 22 0 0 0 21 0 0 0 0 0 0 23 0 24 0 0 0 0 0 0 0 0 0 26 35 27 0 0 0 29 0 0 0 0 37 0 0 0 0 
		31 0 0 0 0 0 0 0 0 0 0 0 23 0 0 0 0 0 0 0 0 0 0 37 0 0 0 0 0 0 0 0 0 0 0 0 0 0 20 0 0 0 0 0 0 0 0 0 0 0 0 0 0 0 0 0 
		32 0 0 0 0 0 26 0 0 0 24 0 0 0 0 0 0 0 0 0 21 0 0 0 0 0 0 0 0 0 0 0 0 0 0 40 0 0 0 0 0 0 0 0 0 0 0 35 0 0 0 0 0 0 0 0 
		33 0 0 0 0 0 0 0 0 0 0 0 0 0 0 0 0 0 0 0 0 0 0 0 0 0 0 29 0 20 24 0 0 0 0 0 0 0 0 0 40 0 0 0 0 0 0 0 38 0 36 0 0 21 26 0 
		34 0 0 0 0 0 0 0 0 0 0 23 0 35 0 0 0 0 0 0 0 0 0 0 0 0 0 0 0 0 0 0 0 40 0 0 0 0 0 0 33 0 0 0 0 0 0 0 0 0 0 0 0 0 39 0 
		35 0 0 0 0 28 0 0 0 0 0 0 23 0 0 35 0 0 0 0 0 0 0 0 0 0 0 0 0 0 0 0 0 0 0 0 0 0 0 0 0 0 0 0 0 0 0 0 0 0 0 0 0 0 0 0 
		36 0 0 0 0 0 0 0 0 0 25 0 0 0 0 0 0 0 0 0 0 34 0 0 0 0 0 0 0 0 20 0 0 0 0 0 0 0 0 0 0 0 30 0 0 0 0 0 0 0 0 0 0 0 0 0 
		37 0 0 0 0 0 0 0 0 0 0 0 0 0 0 0 0 0 0 0 0 0 0 0 0 0 0 0 0 0 23 0 20 0 0 0 0 0 0 0 0 0 0 0 28 0 0 0 29 0 0 30 0 0 37 0 
		38 0 0 0 24 0 0 0 0 0 0 0 0 0 0 0 0 22 0 0 0 0 0 0 0 0 0 0 31 0 0 0 0 0 0 0 0 0 0 0 22 0 0 0 0 0 31 0 0 0 0 0 0 0 38 0 
		39 0 0 0 0 0 0 0 0 0 0 0 0 0 0 0 0 0 0 0 38 0 0 0 36 0 0 0 0 0 0 26 0 0 40 33 0 0 0 22 0 22 0 0 0 0 20 0 0 0 0 40 0 0 0 0 
		40 0 0 0 0 0 0 26 0 27 0 0 0 0 0 0 0 0 0 0 0 0 0 0 20 0 0 0 0 0 0 35 0 0 0 0 0 0 0 0 22 0 0 0 0 0 30 0 0 0 33 0 0 0 0 0 
		41 0 0 0 0 0 0 0 0 0 0 0 0 0 0 0 0 0 0 0 0 0 0 0 0 35 0 0 0 0 0 27 0 0 0 0 0 30 0 0 0 0 0 0 0 0 0 0 0 0 0 23 0 0 0 0 
		42 0 0 0 0 0 0 0 24 27 0 0 0 0 0 0 0 0 0 0 0 0 0 0 0 0 0 0 0 0 0 0 0 0 0 0 0 0 0 0 0 0 0 0 0 31 0 0 0 0 0 25 0 0 0 0 
		43 33 0 0 0 0 27 0 28 0 32 0 39 0 0 0 0 0 0 0 0 0 0 0 0 0 27 0 0 0 0 0 0 0 0 0 0 0 28 0 0 0 0 0 0 0 0 0 38 0 0 0 23 0 0 0 
		44 0 0 0 0 0 29 0 0 0 0 34 32 0 0 32 0 0 0 0 0 0 0 0 0 0 0 0 0 0 0 0 0 0 0 0 0 0 0 0 0 0 0 31 0 0 0 0 0 0 0 0 30 26 0 29 
		45 0 0 0 0 0 0 0 0 0 0 0 0 0 0 0 0 0 0 0 0 0 0 0 36 0 0 26 0 29 0 29 0 0 0 0 0 0 0 31 20 30 0 0 0 0 0 0 0 40 0 0 20 0 0 0 
		46 0 0 0 0 0 0 0 0 0 0 0 0 0 0 0 0 0 0 0 0 0 0 0 0 0 24 0 0 0 0 0 0 35 0 0 0 0 0 0 0 0 0 0 0 0 0 0 0 0 0 0 0 0 0 0 
		47 0 0 0 0 0 0 38 0 24 0 0 0 0 0 0 0 0 0 0 0 0 0 0 31 0 0 0 0 0 22 0 0 0 38 0 0 0 29 0 0 0 0 0 38 0 0 0 0 0 0 0 0 0 0 0 
		48 0 0 0 0 0 23 0 0 0 0 0 0 0 0 27 0 0 0 0 0 37 0 0 0 0 0 0 0 0 37 0 0 0 0 0 0 0 0 0 0 0 0 0 0 0 40 0 0 0 30 0 0 0 0 0 
		49 0 0 0 0 0 0 25 0 0 0 0 0 0 23 0 0 0 0 0 0 0 0 0 39 0 0 0 0 0 0 0 0 0 36 0 0 0 0 0 0 33 0 0 0 0 0 0 0 30 0 0 0 0 0 0 
		50 0 37 0 0 0 0 30 0 38 0 0 0 0 0 39 0 0 0 0 0 0 35 0 0 0 30 0 0 0 0 37 0 0 0 0 0 0 30 0 40 0 23 25 0 0 0 0 0 0 0 0 0 0 0 0 
		51 0 0 0 0 0 0 0 0 0 28 35 0 0 0 0 0 0 0 0 0 0 0 32 0 0 0 0 0 0 0 0 0 0 0 0 0 0 0 0 0 0 0 0 23 30 20 0 0 0 0 0 0 0 0 0 
		52 0 0 0 0 0 0 0 0 0 0 36 22 22 0 32 0 0 0 0 32 0 32 0 31 0 0 0 0 0 0 0 0 0 21 0 0 0 0 0 0 0 0 0 0 26 0 0 0 0 0 0 0 0 0 0 
		53 0 26 0 0 0 0 0 37 0 0 0 0 0 0 0 0 0 0 40 0 0 0 0 23 0 0 35 0 26 22 0 0 0 26 39 0 0 37 38 0 0 0 0 0 0 0 0 0 0 0 0 0 0 0 0 
		54 0 0 0 0 0 35 0 26 0 0 0 0 0 0 0 0 0 0 0 34 0 0 0 0 0 0 0 0 0 0 0 0 0 0 0 0 0 0 0 0 0 0 0 0 29 0 0 0 0 0 0 0 0 0 0 
;
